StudentsNr = 10;
InstructorsNr = 37;
DaysNr = 2;
SlotsPerDay = 40;
AvailabilitySlotsLenght = 40;
RoomNr = 2;
ProgrammNr = 1;
DegreeNr = 3;
RolesNr = 4;
CoursesNr = 8;
InstructorsProgramm = [{1}, {1}, {1}, {1}, {1}, {1}, {1}, {1}, {1}, {1}, {1}, {1}, {1}, {1}, {1}, {1}, {1}, {1}, {1}, {1}, {1}, {1}, {1}, {1}, {1}, {1}, {1}, {1}, {1}, {1}, {1}, {1}, {1}, {1}, {1}, {1}, {1}];
InstructorRolesPerProgramm = [|{8, 9, 11, 12, 14, 15, 17, 18, 20, 21, 25, 26, 31, 32, 36}, {1, 2, 5, 6, 7, 9, 11, 12, 13, 14, 15, 17, 18, 19, 25, 26, 27, 31, 32, 36}, {2, 3, 12, 13, 14, 15, 19, 20, 22, 23, 26, 27, 28, 29, 30, 32, 34}, {2, 3, 6, 7, 8, 9, 10, 19, 21, 24, 28, 29, 30, 31, 32, 35, 36, 37}|];
InstructorsAvailability = [|0, 1, |0, 1, |1, 1, |1, 1, |1, 1, |0, 1, |0, 1, |1, 1, |0, 1, |1, 1, |0, 1, |0, 1, |1, 1, |1, 1, |1, 1, |1, 1, |0, 0, |0, 0, |0, 0, |0, 0, |0, 1, |1, 1, |0, 1, |1, 1, |1, 1, |1, 1, |1, 0, |0, 0, |0, 0, |0, 1, |1, 1, |0, 1, |0, 1, |1, 1, |0, 0, |1, 1, |0, 1|];
StudentsProgramm = [1, 1, 1, 1, 1, 1, 1, 1, 1, 1];
StudentsDegree = [1, 2, 1, 3, 3, 1, 2, 1, 2, 2];
StudentsSupervisorId = [11, 10, 1, 10, 18, 19, 29, 35, 21, 35];
StudentsCourseIds = [{6, 7}, {1, 2, 3, 4, 5, 6, 7, 8}, {4, 8}, {}, {}, {6, 8}, {1, 2, 3, 4, 5, 6, 7, 8}, {4, 6}, {1, 2, 3, 4, 5, 6, 7, 8}, {1, 2, 3, 4, 5, 6, 7, 8}];
StudentsAvailability = [|0, 1, |0, 1, |0, 1, |1, 1, |0, 1, |1, 1, |1, 1, |1, 1, |0, 0, |1, 1|];
TheoryticalMinCard = [0, 0, 0, 0, 0, 0, 0, 0, 0, 0];
CoursesInstructorIds = [{9, 10, 12, 13, 15, 20, 21, 22, 24, 28, 33, 34}, {7, 9, 15, 16, 18, 22, 26, 27, 28, 30, 32, 33, 35, 36}, {4, 5, 7, 12, 18, 19, 21, 24, 27, 29, 30, 33, 34, 36, 37}, {1, 3, 5, 8, 10, 16, 20, 21, 22, 23, 24, 32, 34, 35, 36, 37}, {2, 6, 8, 19, 22, 24, 26, 27, 28, 31, 33}, {1, 21}, {11, 22}, {1, 2, 4, 6, 7, 8, 12, 14, 16, 19, 21, 22, 25, 27, 28, 30, 32, 34, 35}];
RolesDemands = [10, 3, 16, 17];
RolesContinuity = [];
ExamLen = [1, 2, 1, 1, 1, 1, 2, 1, 2, 2];
LunchTsMinLen = 1;
LunchStarts = [10..27, 51..68];
SupervisorAvailable = 0;
OptimalLunchLenght = [3, 1];
OptimalStartTs = [1, 0];
OptimalFinishTs = [2, 40];
MinimizeRooms = 100;
RolesSoftContinuity = [|1, 2, 3, 4|1, 0, 3, 4|];
SameDegreeInRoom = 20;
Mergeability = 1;
